5 5
4 40 3 18 2 67 1 62 0 10
4 52 0 73 3 46 1 55 2 46
2 75 4 60 3 97 1 26 0 27
1 38 0 22 3 26 4 86 2 69
0 35 3 66 1 99 4 73 2 51
-1
0 3 5
0 1 5
0 1 5
0 3 5
0 2 5
-2
127 266
58 284
78 360
100 276
145 491

404 5
20 16 6 14 4
15 22 8 13 3
10 2 19 9 24
21 17 1 7 12
5 0 11 18 23
